511 510 509 513 512 527 526 523 522 514 515 516 517 521 520 519 518 495 494 472 473 474 570 569 568 20 19 18 17 16 15 14 11 10 9 8 7 6 5 4 3 2 1 0 573 572 571 460 459 458 457 456 455 454 439 440 441 450 449 448 447 446 442 443 444 445 436 438 437 435 434 433 432 430 431 429 428 427 426 425 424 423 422 421 420 419 417 413 414 416 415 352 351 350 347 348 349 358 357 354 353 355 356 412 411 418 410 384 383 382 386 387 385 409 408 407 406 405 404 399 400 403 402 401 360 359 361 362 363 364 346 345 344 343 342 366 367 365 368 369 370 327 328 329 326 325 324 323 322 372 371 396 395 398 397 394 393 392 391 388 389 390 381 380 379 378 377 376 375 373 374 315 314 316 313 312 311 451 501 500 499 453 452 461 462 463 464 465 466 467 468 469 471 470 496 497 498 502 503 504 310 309 308 505 506 507 508 302 301 303 304 307 305 306 318 317 319 320 321 297 298 267 268 269 270 292 291 293 294 296 295 330 331 332 340 341 339 338 337 336 333 335 334 283 284 285 286 287 280 281 282 279 278 277 276 288 289 290 275 274 273 272 271 266 265 264 263 262 261 260 259 258 299 300 257 256 255 253 254 252 251 250 249 248 241 242 244 243 240 237 238 239 245 247 246 216 217 215 214 213 212 211 210 209 208 207 206 205 198 199 200 201 202 204 203 165 153 157 158 145 146 147 148 152 149 150 151 143 144 142 141 140 139 136 135 134 133 132 131 130 129 137 138 128 127 126 125 124 69 70 68 67 66 65 75 74 73 72 71 123 122 121 120 119 118 117 106 105 104 103 102 551 550 559 558 557 552 101 100 99 98 96 95 94 97 553 554 556 555 45 46 91 92 93 89 88 78 77 76 64 62 79 80 81 87 90 86 85 84 83 82 57 59 61 63 60 58 56 55 53 54 52 51 50 49 48 47 44 43 42 39 41 40 35 34 33 38 37 36 32 30 31 22 23 12 13 21 24 25 28 29 27 26 567 475 476 480 479 477 478 566 565 564 563 562 561 560 549 548 545 546 547 544 543 541 542 107 109 108 173 174 175 171 170 172 111 110 115 116 114 112 113 161 160 159 156 155 154 164 166 167 163 162 168 169 180 181 179 182 183 185 184 197 196 195 194 193 219 218 220 221 222 224 223 232 236 235 234 233 530 531 532 489 486 487 535 534 488 533 231 230 229 228 225 226 191 192 190 189 227 186 188 187 178 177 176 540 538 539 537 536 484 485 483 481 482 493 524 525 492 491 490 529 528